 Minimize
[ 1.0000000000000000 Z0 * Z131  ]
Subject to
c1: [ -0.1000000000000000 Z0 * Z101 -0.2000000000000000 Z0 * Z102 -0.3000000000000000 Z0 * Z103 -0.4000000000000000 Z0 * Z104 -0.5000000000000000 Z0 * Z105 -1.0000000000000000 Z0 * Z106 -1.0000000000000000 Z0 * Z107 -1.0000000000000000 Z0 * Z108 -1.0000000000000000 Z0 * Z109 -1.0000000000000000 Z0 * Z110  + 1.0000000000000000 Z0 * Z131  ] = 0.000000
c2: [ 1.0000000000000000 Z1 * Z106  + 1.0000000000000000 Z2 * Z107  + 1.0000000000000000 Z3 * Z108  + 1.0000000000000000 Z4 * Z109  + 1.0000000000000000 Z5 * Z110  ] >= 12.000000
c3: [ 1.0000000000000000 Z6 * Z106  + 1.0000000000000000 Z7 * Z107  + 1.0000000000000000 Z8 * Z108  + 1.0000000000000000 Z9 * Z109  + 1.0000000000000000 Z10 * Z110  ] >= 6.000000
c4: [ 1.0000000000000000 Z11 * Z106  + 1.0000000000000000 Z12 * Z107  + 1.0000000000000000 Z13 * Z108  + 1.0000000000000000 Z14 * Z109  + 1.0000000000000000 Z15 * Z110  ] >= 15.000000
c5: [ 1.0000000000000000 Z16 * Z106  + 1.0000000000000000 Z17 * Z107  + 1.0000000000000000 Z18 * Z108  + 1.0000000000000000 Z19 * Z109  + 1.0000000000000000 Z20 * Z110  ] >= 6.000000
c6: [ 1.0000000000000000 Z21 * Z106  + 1.0000000000000000 Z22 * Z107  + 1.0000000000000000 Z23 * Z108  + 1.0000000000000000 Z24 * Z109  + 1.0000000000000000 Z25 * Z110  ] >= 9.000000
c7: [ -330.0000000000000000 Z0 * Z1 -360.0000000000000000 Z0 * Z6 -370.0000000000000000 Z0 * Z11 -415.0000000000000000 Z0 * Z16 -435.0000000000000000 Z0 * Z21  + 1800.0000000000000000 Z0 * Z101  ] <= 0.000000
c8: [ -330.0000000000000000 Z0 * Z2 -360.0000000000000000 Z0 * Z7 -370.0000000000000000 Z0 * Z12 -415.0000000000000000 Z0 * Z17 -435.0000000000000000 Z0 * Z22  + 1800.0000000000000000 Z0 * Z102  ] <= 0.000000
c9: [ -330.0000000000000000 Z0 * Z3 -360.0000000000000000 Z0 * Z8 -370.0000000000000000 Z0 * Z13 -415.0000000000000000 Z0 * Z18 -435.0000000000000000 Z0 * Z23  + 1800.0000000000000000 Z0 * Z103  ] <= 0.000000
c10: [ -330.0000000000000000 Z0 * Z4 -360.0000000000000000 Z0 * Z9 -370.0000000000000000 Z0 * Z14 -415.0000000000000000 Z0 * Z19 -435.0000000000000000 Z0 * Z24  + 1800.0000000000000000 Z0 * Z104  ] <= 0.000000
c11: [ -330.0000000000000000 Z0 * Z5 -360.0000000000000000 Z0 * Z10 -370.0000000000000000 Z0 * Z15 -415.0000000000000000 Z0 * Z20 -435.0000000000000000 Z0 * Z25  + 1800.0000000000000000 Z0 * Z105  ] <= 0.000000
c12: [ 330.0000000000000000 Z0 * Z1  + 360.0000000000000000 Z0 * Z6  + 370.0000000000000000 Z0 * Z11  + 415.0000000000000000 Z0 * Z16  + 435.0000000000000000 Z0 * Z21 -2000.0000000000000000 Z0 * Z101  ] <= 0.000000
c13: [ 330.0000000000000000 Z0 * Z2  + 360.0000000000000000 Z0 * Z7  + 370.0000000000000000 Z0 * Z12  + 415.0000000000000000 Z0 * Z17  + 435.0000000000000000 Z0 * Z22 -2000.0000000000000000 Z0 * Z102  ] <= 0.000000
c14: [ 330.0000000000000000 Z0 * Z3  + 360.0000000000000000 Z0 * Z8  + 370.0000000000000000 Z0 * Z13  + 415.0000000000000000 Z0 * Z18  + 435.0000000000000000 Z0 * Z23 -2000.0000000000000000 Z0 * Z103  ] <= 0.000000
c15: [ 330.0000000000000000 Z0 * Z4  + 360.0000000000000000 Z0 * Z9  + 370.0000000000000000 Z0 * Z14  + 415.0000000000000000 Z0 * Z19  + 435.0000000000000000 Z0 * Z24 -2000.0000000000000000 Z0 * Z104  ] <= 0.000000
c16: [ 330.0000000000000000 Z0 * Z5  + 360.0000000000000000 Z0 * Z10  + 370.0000000000000000 Z0 * Z15  + 415.0000000000000000 Z0 * Z20  + 435.0000000000000000 Z0 * Z25 -2000.0000000000000000 Z0 * Z105  ] <= 0.000000
c17: [ -1.0000000000000000 Z0 * Z1 -1.0000000000000000 Z0 * Z6 -1.0000000000000000 Z0 * Z11 -1.0000000000000000 Z0 * Z16 -1.0000000000000000 Z0 * Z21  + 1.0000000000000000 Z0 * Z101  ] <= 0.000000
c18: [ -1.0000000000000000 Z0 * Z2 -1.0000000000000000 Z0 * Z7 -1.0000000000000000 Z0 * Z12 -1.0000000000000000 Z0 * Z17 -1.0000000000000000 Z0 * Z22  + 1.0000000000000000 Z0 * Z102  ] <= 0.000000
c19: [ -1.0000000000000000 Z0 * Z3 -1.0000000000000000 Z0 * Z8 -1.0000000000000000 Z0 * Z13 -1.0000000000000000 Z0 * Z18 -1.0000000000000000 Z0 * Z23  + 1.0000000000000000 Z0 * Z103  ] <= 0.000000
c20: [ -1.0000000000000000 Z0 * Z4 -1.0000000000000000 Z0 * Z9 -1.0000000000000000 Z0 * Z14 -1.0000000000000000 Z0 * Z19 -1.0000000000000000 Z0 * Z24  + 1.0000000000000000 Z0 * Z104  ] <= 0.000000
c21: [ -1.0000000000000000 Z0 * Z5 -1.0000000000000000 Z0 * Z10 -1.0000000000000000 Z0 * Z15 -1.0000000000000000 Z0 * Z20 -1.0000000000000000 Z0 * Z25  + 1.0000000000000000 Z0 * Z105  ] <= 0.000000
c22: [ 1.0000000000000000 Z0 * Z1  + 1.0000000000000000 Z0 * Z6  + 1.0000000000000000 Z0 * Z11  + 1.0000000000000000 Z0 * Z16  + 1.0000000000000000 Z0 * Z21 -5.0000000000000000 Z0 * Z101  ] <= 0.000000
c23: [ 1.0000000000000000 Z0 * Z2  + 1.0000000000000000 Z0 * Z7  + 1.0000000000000000 Z0 * Z12  + 1.0000000000000000 Z0 * Z17  + 1.0000000000000000 Z0 * Z22 -5.0000000000000000 Z0 * Z102  ] <= 0.000000
c24: [ 1.0000000000000000 Z0 * Z3  + 1.0000000000000000 Z0 * Z8  + 1.0000000000000000 Z0 * Z13  + 1.0000000000000000 Z0 * Z18  + 1.0000000000000000 Z0 * Z23 -5.0000000000000000 Z0 * Z103  ] <= 0.000000
c25: [ 1.0000000000000000 Z0 * Z4  + 1.0000000000000000 Z0 * Z9  + 1.0000000000000000 Z0 * Z14  + 1.0000000000000000 Z0 * Z19  + 1.0000000000000000 Z0 * Z24 -5.0000000000000000 Z0 * Z104  ] <= 0.000000
c26: [ 1.0000000000000000 Z0 * Z5  + 1.0000000000000000 Z0 * Z10  + 1.0000000000000000 Z0 * Z15  + 1.0000000000000000 Z0 * Z20  + 1.0000000000000000 Z0 * Z25 -5.0000000000000000 Z0 * Z105  ] <= 0.000000
c27: [ 1.0000000000000000 Z0 * Z101 -1.0000000000000000 Z0 * Z106  ] <= 0.000000
c28: [ 1.0000000000000000 Z0 * Z102 -1.0000000000000000 Z0 * Z107  ] <= 0.000000
c29: [ 1.0000000000000000 Z0 * Z103 -1.0000000000000000 Z0 * Z108  ] <= 0.000000
c30: [ 1.0000000000000000 Z0 * Z104 -1.0000000000000000 Z0 * Z109  ] <= 0.000000
c31: [ 1.0000000000000000 Z0 * Z105 -1.0000000000000000 Z0 * Z110  ] <= 0.000000
c32: [ -15.0000000000000000 Z0 * Z101  + 1.0000000000000000 Z0 * Z106  ] <= 0.000000
c33: [ -12.0000000000000000 Z0 * Z102  + 1.0000000000000000 Z0 * Z107  ] <= 0.000000
c34: [ -9.0000000000000000 Z0 * Z103  + 1.0000000000000000 Z0 * Z108  ] <= 0.000000
c35: [ -6.0000000000000000 Z0 * Z104  + 1.0000000000000000 Z0 * Z109  ] <= 0.000000
c36: [ -6.0000000000000000 Z0 * Z105  + 1.0000000000000000 Z0 * Z110  ] <= 0.000000
c37: [ 1.0000000000000000 Z0 * Z106  + 1.0000000000000000 Z0 * Z107  + 1.0000000000000000 Z0 * Z108  + 1.0000000000000000 Z0 * Z109  + 1.0000000000000000 Z0 * Z110  ] >= 10.000000
c38: [ -1.0000000000000000 Z0 * Z101  + 1.0000000000000000 Z0 * Z102  ] <= 0.000000
c39: [ -1.0000000000000000 Z0 * Z102  + 1.0000000000000000 Z0 * Z103  ] <= 0.000000
c40: [ -1.0000000000000000 Z0 * Z103  + 1.0000000000000000 Z0 * Z104  ] <= 0.000000
c41: [ -1.0000000000000000 Z0 * Z104  + 1.0000000000000000 Z0 * Z105  ] <= 0.000000
c42: [ -1.0000000000000000 Z0 * Z106  + 1.0000000000000000 Z0 * Z107  ] <= 0.000000
c43: [ -1.0000000000000000 Z0 * Z107  + 1.0000000000000000 Z0 * Z108  ] <= 0.000000
c44: [ -1.0000000000000000 Z0 * Z108  + 1.0000000000000000 Z0 * Z109  ] <= 0.000000
c45: [ -1.0000000000000000 Z0 * Z109  + 1.0000000000000000 Z0 * Z110  ] <= 0.000000
c46: [ 1.0000000000000000 Z0 * Z1 -1.0000000000000000 Z0 * Z26 -2.0000000000000000 Z0 * Z27 -4.0000000000000000 Z0 * Z28  ] = 0.000000
c47: [ 1.0000000000000000 Z0 * Z2 -1.0000000000000000 Z0 * Z29 -2.0000000000000000 Z0 * Z30 -4.0000000000000000 Z0 * Z31  ] = 0.000000
c48: [ 1.0000000000000000 Z0 * Z3 -1.0000000000000000 Z0 * Z32 -2.0000000000000000 Z0 * Z33 -4.0000000000000000 Z0 * Z34  ] = 0.000000
c49: [ 1.0000000000000000 Z0 * Z4 -1.0000000000000000 Z0 * Z35 -2.0000000000000000 Z0 * Z36 -4.0000000000000000 Z0 * Z37  ] = 0.000000
c50: [ 1.0000000000000000 Z0 * Z5 -1.0000000000000000 Z0 * Z38 -2.0000000000000000 Z0 * Z39 -4.0000000000000000 Z0 * Z40  ] = 0.000000
c51: [ 1.0000000000000000 Z0 * Z6 -1.0000000000000000 Z0 * Z41 -2.0000000000000000 Z0 * Z42 -4.0000000000000000 Z0 * Z43  ] = 0.000000
c52: [ 1.0000000000000000 Z0 * Z7 -1.0000000000000000 Z0 * Z44 -2.0000000000000000 Z0 * Z45 -4.0000000000000000 Z0 * Z46  ] = 0.000000
c53: [ 1.0000000000000000 Z0 * Z8 -1.0000000000000000 Z0 * Z47 -2.0000000000000000 Z0 * Z48 -4.0000000000000000 Z0 * Z49  ] = 0.000000
c54: [ 1.0000000000000000 Z0 * Z9 -1.0000000000000000 Z0 * Z50 -2.0000000000000000 Z0 * Z51 -4.0000000000000000 Z0 * Z52  ] = 0.000000
c55: [ 1.0000000000000000 Z0 * Z10 -1.0000000000000000 Z0 * Z53 -2.0000000000000000 Z0 * Z54 -4.0000000000000000 Z0 * Z55  ] = 0.000000
c56: [ 1.0000000000000000 Z0 * Z11 -1.0000000000000000 Z0 * Z56 -2.0000000000000000 Z0 * Z57 -4.0000000000000000 Z0 * Z58  ] = 0.000000
c57: [ 1.0000000000000000 Z0 * Z12 -1.0000000000000000 Z0 * Z59 -2.0000000000000000 Z0 * Z60 -4.0000000000000000 Z0 * Z61  ] = 0.000000
c58: [ 1.0000000000000000 Z0 * Z13 -1.0000000000000000 Z0 * Z62 -2.0000000000000000 Z0 * Z63 -4.0000000000000000 Z0 * Z64  ] = 0.000000
c59: [ 1.0000000000000000 Z0 * Z14 -1.0000000000000000 Z0 * Z65 -2.0000000000000000 Z0 * Z66 -4.0000000000000000 Z0 * Z67  ] = 0.000000
c60: [ 1.0000000000000000 Z0 * Z15 -1.0000000000000000 Z0 * Z68 -2.0000000000000000 Z0 * Z69 -4.0000000000000000 Z0 * Z70  ] = 0.000000
c61: [ 1.0000000000000000 Z0 * Z16 -1.0000000000000000 Z0 * Z71 -2.0000000000000000 Z0 * Z72 -4.0000000000000000 Z0 * Z73  ] = 0.000000
c62: [ 1.0000000000000000 Z0 * Z17 -1.0000000000000000 Z0 * Z74 -2.0000000000000000 Z0 * Z75 -4.0000000000000000 Z0 * Z76  ] = 0.000000
c63: [ 1.0000000000000000 Z0 * Z18 -1.0000000000000000 Z0 * Z77 -2.0000000000000000 Z0 * Z78 -4.0000000000000000 Z0 * Z79  ] = 0.000000
c64: [ 1.0000000000000000 Z0 * Z19 -1.0000000000000000 Z0 * Z80 -2.0000000000000000 Z0 * Z81 -4.0000000000000000 Z0 * Z82  ] = 0.000000
c65: [ 1.0000000000000000 Z0 * Z20 -1.0000000000000000 Z0 * Z83 -2.0000000000000000 Z0 * Z84 -4.0000000000000000 Z0 * Z85  ] = 0.000000
c66: [ 1.0000000000000000 Z0 * Z21 -1.0000000000000000 Z0 * Z86 -2.0000000000000000 Z0 * Z87 -4.0000000000000000 Z0 * Z88  ] = 0.000000
c67: [ 1.0000000000000000 Z0 * Z22 -1.0000000000000000 Z0 * Z89 -2.0000000000000000 Z0 * Z90 -4.0000000000000000 Z0 * Z91  ] = 0.000000
c68: [ 1.0000000000000000 Z0 * Z23 -1.0000000000000000 Z0 * Z92 -2.0000000000000000 Z0 * Z93 -4.0000000000000000 Z0 * Z94  ] = 0.000000
c69: [ 1.0000000000000000 Z0 * Z24 -1.0000000000000000 Z0 * Z95 -2.0000000000000000 Z0 * Z96 -4.0000000000000000 Z0 * Z97  ] = 0.000000
c70: [ 1.0000000000000000 Z0 * Z25 -1.0000000000000000 Z0 * Z98 -2.0000000000000000 Z0 * Z99 -4.0000000000000000 Z0 * Z100  ] = 0.000000
c71: [ 1.0000000000000000 Z0 * Z106 -1.0000000000000000 Z0 * Z111 -2.0000000000000000 Z0 * Z112 -4.0000000000000000 Z0 * Z113 -8.0000000000000000 Z0 * Z114  ] = 0.000000
c72: [ 1.0000000000000000 Z0 * Z107 -1.0000000000000000 Z0 * Z115 -2.0000000000000000 Z0 * Z116 -4.0000000000000000 Z0 * Z117 -8.0000000000000000 Z0 * Z118  ] = 0.000000
c73: [ 1.0000000000000000 Z0 * Z108 -1.0000000000000000 Z0 * Z119 -2.0000000000000000 Z0 * Z120 -4.0000000000000000 Z0 * Z121 -8.0000000000000000 Z0 * Z122  ] = 0.000000
c74: [ 1.0000000000000000 Z0 * Z109 -1.0000000000000000 Z0 * Z123 -2.0000000000000000 Z0 * Z124 -4.0000000000000000 Z0 * Z125 -8.0000000000000000 Z0 * Z126  ] = 0.000000
c75: [ 1.0000000000000000 Z0 * Z110 -1.0000000000000000 Z0 * Z127 -2.0000000000000000 Z0 * Z128 -4.0000000000000000 Z0 * Z129 -8.0000000000000000 Z0 * Z130  ] = 0.000000
ac1: Z0 - 1 = 0
Bounds
1 <= Z0 <= 1
0.0000000000000000 <= Z1 <= 5.0000000000000000
0.0000000000000000 <= Z2 <= 5.0000000000000000
0.0000000000000000 <= Z3 <= 5.0000000000000000
0.0000000000000000 <= Z4 <= 5.0000000000000000
0.0000000000000000 <= Z5 <= 5.0000000000000000
0.0000000000000000 <= Z6 <= 5.0000000000000000
0.0000000000000000 <= Z7 <= 5.0000000000000000
0.0000000000000000 <= Z8 <= 5.0000000000000000
0.0000000000000000 <= Z9 <= 5.0000000000000000
0.0000000000000000 <= Z10 <= 5.0000000000000000
0.0000000000000000 <= Z11 <= 5.0000000000000000
0.0000000000000000 <= Z12 <= 5.0000000000000000
0.0000000000000000 <= Z13 <= 5.0000000000000000
0.0000000000000000 <= Z14 <= 5.0000000000000000
0.0000000000000000 <= Z15 <= 5.0000000000000000
0.0000000000000000 <= Z16 <= 5.0000000000000000
0.0000000000000000 <= Z17 <= 5.0000000000000000
0.0000000000000000 <= Z18 <= 5.0000000000000000
0.0000000000000000 <= Z19 <= 5.0000000000000000
0.0000000000000000 <= Z20 <= 5.0000000000000000
0.0000000000000000 <= Z21 <= 5.0000000000000000
0.0000000000000000 <= Z22 <= 5.0000000000000000
0.0000000000000000 <= Z23 <= 5.0000000000000000
0.0000000000000000 <= Z24 <= 5.0000000000000000
0.0000000000000000 <= Z25 <= 5.0000000000000000
0.0000000000000000 <= Z26 <= 1.0000000000000000
0.0000000000000000 <= Z27 <= 1.0000000000000000
0.0000000000000000 <= Z28 <= 1.0000000000000000
0.0000000000000000 <= Z29 <= 1.0000000000000000
0.0000000000000000 <= Z30 <= 1.0000000000000000
0.0000000000000000 <= Z31 <= 1.0000000000000000
0.0000000000000000 <= Z32 <= 1.0000000000000000
0.0000000000000000 <= Z33 <= 1.0000000000000000
0.0000000000000000 <= Z34 <= 1.0000000000000000
0.0000000000000000 <= Z35 <= 1.0000000000000000
0.0000000000000000 <= Z36 <= 1.0000000000000000
0.0000000000000000 <= Z37 <= 1.0000000000000000
0.0000000000000000 <= Z38 <= 1.0000000000000000
0.0000000000000000 <= Z39 <= 1.0000000000000000
0.0000000000000000 <= Z40 <= 1.0000000000000000
0.0000000000000000 <= Z41 <= 1.0000000000000000
0.0000000000000000 <= Z42 <= 1.0000000000000000
0.0000000000000000 <= Z43 <= 1.0000000000000000
0.0000000000000000 <= Z44 <= 1.0000000000000000
0.0000000000000000 <= Z45 <= 1.0000000000000000
0.0000000000000000 <= Z46 <= 1.0000000000000000
0.0000000000000000 <= Z47 <= 1.0000000000000000
0.0000000000000000 <= Z48 <= 1.0000000000000000
0.0000000000000000 <= Z49 <= 1.0000000000000000
0.0000000000000000 <= Z50 <= 1.0000000000000000
0.0000000000000000 <= Z51 <= 1.0000000000000000
0.0000000000000000 <= Z52 <= 1.0000000000000000
0.0000000000000000 <= Z53 <= 1.0000000000000000
0.0000000000000000 <= Z54 <= 1.0000000000000000
0.0000000000000000 <= Z55 <= 1.0000000000000000
0.0000000000000000 <= Z56 <= 1.0000000000000000
0.0000000000000000 <= Z57 <= 1.0000000000000000
0.0000000000000000 <= Z58 <= 1.0000000000000000
0.0000000000000000 <= Z59 <= 1.0000000000000000
0.0000000000000000 <= Z60 <= 1.0000000000000000
0.0000000000000000 <= Z61 <= 1.0000000000000000
0.0000000000000000 <= Z62 <= 1.0000000000000000
0.0000000000000000 <= Z63 <= 1.0000000000000000
0.0000000000000000 <= Z64 <= 1.0000000000000000
0.0000000000000000 <= Z65 <= 1.0000000000000000
0.0000000000000000 <= Z66 <= 1.0000000000000000
0.0000000000000000 <= Z67 <= 1.0000000000000000
0.0000000000000000 <= Z68 <= 1.0000000000000000
0.0000000000000000 <= Z69 <= 1.0000000000000000
0.0000000000000000 <= Z70 <= 1.0000000000000000
0.0000000000000000 <= Z71 <= 1.0000000000000000
0.0000000000000000 <= Z72 <= 1.0000000000000000
0.0000000000000000 <= Z73 <= 1.0000000000000000
0.0000000000000000 <= Z74 <= 1.0000000000000000
0.0000000000000000 <= Z75 <= 1.0000000000000000
0.0000000000000000 <= Z76 <= 1.0000000000000000
0.0000000000000000 <= Z77 <= 1.0000000000000000
0.0000000000000000 <= Z78 <= 1.0000000000000000
0.0000000000000000 <= Z79 <= 1.0000000000000000
0.0000000000000000 <= Z80 <= 1.0000000000000000
0.0000000000000000 <= Z81 <= 1.0000000000000000
0.0000000000000000 <= Z82 <= 1.0000000000000000
0.0000000000000000 <= Z83 <= 1.0000000000000000
0.0000000000000000 <= Z84 <= 1.0000000000000000
0.0000000000000000 <= Z85 <= 1.0000000000000000
0.0000000000000000 <= Z86 <= 1.0000000000000000
0.0000000000000000 <= Z87 <= 1.0000000000000000
0.0000000000000000 <= Z88 <= 1.0000000000000000
0.0000000000000000 <= Z89 <= 1.0000000000000000
0.0000000000000000 <= Z90 <= 1.0000000000000000
0.0000000000000000 <= Z91 <= 1.0000000000000000
0.0000000000000000 <= Z92 <= 1.0000000000000000
0.0000000000000000 <= Z93 <= 1.0000000000000000
0.0000000000000000 <= Z94 <= 1.0000000000000000
0.0000000000000000 <= Z95 <= 1.0000000000000000
0.0000000000000000 <= Z96 <= 1.0000000000000000
0.0000000000000000 <= Z97 <= 1.0000000000000000
0.0000000000000000 <= Z98 <= 1.0000000000000000
0.0000000000000000 <= Z99 <= 1.0000000000000000
0.0000000000000000 <= Z100 <= 1.0000000000000000
0.0000000000000000 <= Z101 <= 1.0000000000000000
0.0000000000000000 <= Z102 <= 1.0000000000000000
0.0000000000000000 <= Z103 <= 1.0000000000000000
0.0000000000000000 <= Z104 <= 1.0000000000000000
0.0000000000000000 <= Z105 <= 1.0000000000000000
0.0000000000000000 <= Z106 <= 15.0000000000000000
0.0000000000000000 <= Z107 <= 12.0000000000000000
0.0000000000000000 <= Z108 <= 9.0000000000000000
0.0000000000000000 <= Z109 <= 6.0000000000000000
0.0000000000000000 <= Z110 <= 6.0000000000000000
0.0000000000000000 <= Z111 <= 1.0000000000000000
0.0000000000000000 <= Z112 <= 1.0000000000000000
0.0000000000000000 <= Z113 <= 1.0000000000000000
0.0000000000000000 <= Z114 <= 1.0000000000000000
0.0000000000000000 <= Z115 <= 1.0000000000000000
0.0000000000000000 <= Z116 <= 1.0000000000000000
0.0000000000000000 <= Z117 <= 1.0000000000000000
0.0000000000000000 <= Z118 <= 1.0000000000000000
0.0000000000000000 <= Z119 <= 1.0000000000000000
0.0000000000000000 <= Z120 <= 1.0000000000000000
0.0000000000000000 <= Z121 <= 1.0000000000000000
0.0000000000000000 <= Z122 <= 1.0000000000000000
0.0000000000000000 <= Z123 <= 1.0000000000000000
0.0000000000000000 <= Z124 <= 1.0000000000000000
0.0000000000000000 <= Z125 <= 1.0000000000000000
0.0000000000000000 <= Z126 <= 1.0000000000000000
0.0000000000000000 <= Z127 <= 1.0000000000000000
0.0000000000000000 <= Z128 <= 1.0000000000000000
0.0000000000000000 <= Z129 <= 1.0000000000000000
0.0000000000000000 <= Z130 <= 1.0000000000000000
-100000000.0000000000000000 <= Z131 <= 100000000.0000000000000000
Binaries
Z26 Z27 Z28 Z29 Z30 Z31 Z32 Z33 Z34 Z35 Z36 Z37 Z38 Z39 Z40 Z41 Z42 Z43 Z44 Z45 Z46 Z47 Z48 Z49 Z50 Z51 Z52 Z53 Z54 Z55 Z56 Z57 Z58 Z59 Z60 Z61 Z62 Z63 Z64 Z65 Z66 Z67 Z68 Z69 Z70 Z71 Z72 Z73 Z74 Z75 Z76 Z77 Z78 Z79 Z80 Z81 Z82 Z83 Z84 Z85 Z86 Z87 Z88 Z89 Z90 Z91 Z92 Z93 Z94 Z95 Z96 Z97 Z98 Z99 Z100 Z101 Z102 Z103 Z104 Z105 Z111 Z112 Z113 Z114 Z115 Z116 Z117 Z118 Z119 Z120 Z121 Z122 Z123 Z124 Z125 Z126 Z127 Z128 Z129 Z130 
End